p cnf 19 22
9 15 18 -3 -4 14 -11 -1 0
-3 -9 0
-10 -4 5 11 0
18 -14 -10 11 8 16 -13 0
-14 -4 0
-4 10 17 0
-18 -4 11 5 -2 3 0
2 -10 16 17 11 -9 0
-19 -7 -11 0
18 15 1 3 17 11 2 0
-18 1 19 -15 -11 8 -3 -7 -14 6 16 13 0
-19 5 -10 -2 0
-2 -13 17 -4 -18 -8 10 12 -6 -11 -15 5 1 -14 0
-19 4 -3 5 0
19 2 16 -10 -3 9 15 -5 0
16 -10 12 -18 14 -6 -4 0
13 -3 10 9 0
11 3 0
10 13 -18 -4 15 3 5 11 19 2 9 -6 -12 8 0
9 -11 -14 0
7 11 3 -9 13 -16 -10 -18 -15 0
6 1 -15 8 0
